n=5;
row=10;
column=10;
Board=[|0,0,3,4,2,0,3,1,5,4|4,2,0,0,5,3,1,0,1,5|5,1,0,0,3,2,4,0,4,2|0,4,2,0,0,0,5,0,2,3|3,0,1,2,4,0,0,0,0,0|5,0,0,4,2,0,0,0,1,4|2,0,0,1,0,0,0,0,4,0|0,2,5,3,4,1,0,4,5,1|4,0,0,0,3,0,0,1,2,0|0,0,4,0,0,2,4,0,0,2|];
Region=[|1,2,2,2,2,2,3,4,5,6|1,7,8,9,10,11,3,4,5,6|1,7,8,9,10,11,3,4,5,6|1,7,8,9,10,11,3,4,5,6|1,7,8,9,10,11,3,4,5,6|12,7,8,9,10,11,13,14,15,16|12,17,17,17,17,17,13,14,15,16|12,18,18,18,18,18,13,14,15,16|12,19,19,19,19,19,13,14,15,16|12,20,20,20,20,20,13,14,15,16|];
